
===== New CPLEX run =====
Instance: /home/yorig/tuner/mpils-tests/instances/miplib/easy/lotsize.mps
Config: /scratch/yorig/mpils-results-grid-ticks-10000/easy/16proc/seed-9/4_lotsize_seed-9_20260425_202405/expansion/config_param_CPXPARAM_MIP_Strategy_Branch_1_iter_1.prm
========================

Selected objective sense:  MINIMIZE
Selected objective  name:  R1921
Selected RHS        name:  B
Selected bound      name:  BOUND
Version identifier: 22.1.2.0 | 2024-11-26 | 0edbb82fd
CPXPARAM_Threads                                 8
CPXPARAM_Parallel                                1
CPXPARAM_MIP_Strategy_Branch                     1
CPXPARAM_MIP_Cuts_Cliques                        -1
CPXPARAM_MIP_Cuts_FlowCovers                     2
CPXPARAM_MIP_Cuts_Implied                        2
CPXPARAM_MIP_Cuts_GUBCovers                      -1
CPXPARAM_MIP_Limits_GomoryCand                   50
CPXPARAM_MIP_Cuts_Gomory                         1
CPXPARAM_MIP_Cuts_PathCut                        -1
CPXPARAM_MIP_Cuts_MIRCut                         2
CPXPARAM_MIP_Cuts_Disjunctive                    -1
CPXPARAM_Emphasis_MIP                            1
CPXPARAM_DetTimeLimit                            10000
Tried aggregator 1 time.
MIP Presolve eliminated 595 rows and 0 columns.
MIP Presolve added 1190 rows and 0 columns.
MIP Presolve modified 10 coefficients.
Reduced MIP has 2515 rows, 2985 columns, and 7755 nonzeros.
Reduced MIP has 1195 binaries, 0 generals, 0 SOSs, and 0 indicators.
Presolve time = 0.00 sec. (4.53 ticks)
Probing fixed 0 vars, tightened 5487 bounds.
Probing time = 0.01 sec. (18.38 ticks)
Tried aggregator 2 times.
Detecting symmetries...
MIP Presolve modified 1206 coefficients.
Aggregator did 10 substitutions.
Reduced MIP has 2505 rows, 2975 columns, and 7735 nonzeros.
Reduced MIP has 1195 binaries, 0 generals, 0 SOSs, and 0 indicators.
Presolve time = 0.00 sec. (6.66 ticks)
Probing fixed 0 vars, tightened 2401 bounds.
Probing time = 0.00 sec. (6.41 ticks)
Clique table members: 190.
MIP emphasis: integer feasibility.
MIP search method: dynamic search.
Parallel mode: deterministic, using up to 8 threads.
Root relaxation solution time = 0.01 sec. (9.71 ticks)

        Nodes                                         Cuts/
   Node  Left     Objective  IInf  Best Integer    Best Bound    ItCnt     Gap

      0     0   348385.3466   472                 348385.3466      882         
      0     0   572313.5958   462                   Cuts: 726     1889         
      0     0   831822.5913   565                   Cuts: 726     2717         
      0     0   945966.5491   640                   Cuts: 726     3332         
*     0+    0                       1.01740e+07   945966.5491            90.70%
*     0+    0                      7973370.0000   945966.5491            88.14%
Detecting symmetries...
      0     2   945966.5491   640  7973370.0000   945966.5491     3332   88.14%
Elapsed time = 0.34 sec. (495.68 ticks, tree = 0.02 MB, solutions = 2)
    501   416  1496858.0030   232  7973370.0000   946381.4295    11640   88.13%
*   680+  581                      2923159.0000   946381.4295            67.62%
*   681+  602                      2844221.0000   946381.4295            66.73%
*   741+  610                      2807594.0000   946381.4295            66.29%
*   848+  656                      2605083.0000   946381.4295            63.67%
    948   745  1074623.2220   651  2605083.0000   946381.4295    23110   63.67%
*  1367+  958                      1960309.0000   946381.4295            51.72%
*  1398+  958                      1950066.0000   946381.4295            51.47%
*  1417+ 1025                      1947445.0000   946381.4295            51.40%
*  1423+  958                      1943896.0000   946381.4295            51.32%
   1426  1179  1603547.2590   383  1943896.0000   946381.4295    37636   51.32%
*  1437+  958                      1943511.0000   946381.4295            51.31%
*  1512+ 1150                      1943511.0000   946381.4295            51.31%
   1619  1191  1102015.6277   605  1943511.0000   946381.4295    46929   51.31%
   2082  1599  1914412.3660   274  1943511.0000   946381.4295    62567   51.31%
   2721  2070  1126426.9812   626  1943511.0000   946381.4295    81241   51.31%
   3213  2476  1160453.5644   568  1943511.0000   946381.4295    97725   51.31%

Performing restart 1

Repeating presolve.
Tried aggregator 1 time.
MIP Presolve modified 1205 coefficients.
Reduced MIP has 2505 rows, 2975 columns, and 7735 nonzeros.
Reduced MIP has 1195 binaries, 0 generals, 0 SOSs, and 0 indicators.
Presolve time = 0.00 sec. (3.85 ticks)
Tried aggregator 1 time.
MIP Presolve modified 1024 coefficients.
Reduced MIP has 2505 rows, 2975 columns, and 7735 nonzeros.
Reduced MIP has 1195 binaries, 0 generals, 0 SOSs, and 0 indicators.
Presolve time = 0.00 sec. (5.12 ticks)
Represolve time = 0.02 sec. (21.57 ticks)
   3304     0  1098563.8640   669  1943511.0000     Cuts: 726   110135   43.48%
   3304     0  1197652.5177   687  1943511.0000     Cuts: 726   110967   38.38%
   3304     0  1259932.3099   676  1943511.0000     Cuts: 726   111696   35.17%
   3304     2  1259932.3099   676  1943511.0000  1259932.3099   111696   35.17%
   3319    17  1309496.1062   543  1943511.0000  1259955.0631   112745   35.17%
*  3364+   60                      1808161.0000  1259955.0631            30.32%
   3417    98  1354288.9601   676  1808161.0000  1260911.1758   125527   30.27%
Elapsed time = 3.91 sec. (5322.82 ticks, tree = 0.13 MB, solutions = 40)
   3998   519  1668891.2888   196  1808161.0000  1260911.1758   158979   30.27%
   4570   979  1527458.9907   374  1808161.0000  1260911.1758   203860   30.27%
   5121  1526  1739116.0778   281  1808161.0000  1260911.1758   246013   30.27%
   5380  1786  1419274.6861   661  1808161.0000  1260911.1758   270081   30.27%

Cover cuts applied:  32
Implied bound cuts applied:  15
Flow cuts applied:  1089
Mixed integer rounding cuts applied:  1393
Multi commodity flow cuts applied:  23
Lift and project cuts applied:  13
Gomory fractional cuts applied:  3

Root node processing (before b&c):
  Real time             =    0.33 sec. (494.05 ticks)
Parallel b&c, 8 threads:
  Real time             =    7.09 sec. (9510.30 ticks)
  Sync time (average)   =    0.76 sec.
  Wait time (average)   =    0.00 sec.
                          ------------
Total (root+branch&cut) =    7.43 sec. (10004.36 ticks)
Gap: 30.27%
Upper bound: 1.80816e+06
Lower bound: 1.26091e+06
End of CPLEX run. Time: 7.42699 seconds

===== New CPLEX run =====
Instance: /home/yorig/tuner/mpils-tests/instances/miplib/easy/lotsize.mps
Config: /scratch/yorig/mpils-results-grid-ticks-10000/easy/16proc/seed-9/4_lotsize_seed-9_20260425_202405/expansion/config_param_CPXPARAM_MIP_Limits_CutsFactor_1_iter_1.prm
========================

Selected objective sense:  MINIMIZE
Selected objective  name:  R1921
Selected RHS        name:  B
Selected bound      name:  BOUND
Version identifier: 22.1.2.0 | 2024-11-26 | 0edbb82fd
CPXPARAM_Threads                                 8
CPXPARAM_Parallel                                1
CPXPARAM_MIP_Cuts_Cliques                        -1
CPXPARAM_MIP_Cuts_FlowCovers                     2
CPXPARAM_MIP_Cuts_Implied                        2
CPXPARAM_MIP_Cuts_GUBCovers                      -1
CPXPARAM_MIP_Limits_GomoryCand                   50
CPXPARAM_MIP_Cuts_Gomory                         1
CPXPARAM_MIP_Cuts_PathCut                        -1
CPXPARAM_MIP_Cuts_MIRCut                         2
CPXPARAM_MIP_Cuts_Disjunctive                    -1
CPXPARAM_Emphasis_MIP                            1
CPXPARAM_DetTimeLimit                            10000
CPXPARAM_MIP_Limits_CutsFactor                   1
Tried aggregator 1 time.
MIP Presolve eliminated 595 rows and 0 columns.
MIP Presolve added 1190 rows and 0 columns.
MIP Presolve modified 10 coefficients.
Reduced MIP has 2515 rows, 2985 columns, and 7755 nonzeros.
Reduced MIP has 1195 binaries, 0 generals, 0 SOSs, and 0 indicators.
Presolve time = 0.00 sec. (4.53 ticks)
Probing fixed 0 vars, tightened 5487 bounds.
Probing time = 0.01 sec. (18.38 ticks)
Tried aggregator 2 times.
Detecting symmetries...
MIP Presolve modified 1206 coefficients.
Aggregator did 10 substitutions.
Reduced MIP has 2505 rows, 2975 columns, and 7735 nonzeros.
Reduced MIP has 1195 binaries, 0 generals, 0 SOSs, and 0 indicators.
Presolve time = 0.00 sec. (6.66 ticks)
Probing fixed 0 vars, tightened 2401 bounds.
Probing time = 0.00 sec. (6.41 ticks)
Clique table members: 190.
MIP emphasis: integer feasibility.
MIP search method: dynamic search.
Parallel mode: deterministic, using up to 8 threads.
Root relaxation solution time = 0.01 sec. (9.71 ticks)

        Nodes                                         Cuts/
   Node  Left     Objective  IInf  Best Integer    Best Bound    ItCnt     Gap

      0     0   348385.3466   472                 348385.3466      882         
Detecting symmetries...
      0     2   348385.3466   472                 348385.3466      882         
Elapsed time = 0.06 sec. (74.81 ticks, tree = 0.02 MB, solutions = 0)
   1285  1089   975021.8994   406                 348693.3349     4857         
   3869  3407  2005431.8312     7                 348693.3349    12552         
*  4078  3738      integral     0  2017150.0000   348693.3349    13475   82.71%
*  4365  3949      integral     0  1981216.0000   348693.3349    14053   82.40%

Performing restart 1

Repeating presolve.
Tried aggregator 1 time.
MIP Presolve modified 1144 coefficients.
Reduced MIP has 2505 rows, 2975 columns, and 7735 nonzeros.
Reduced MIP has 1195 binaries, 0 generals, 0 SOSs, and 0 indicators.
Presolve time = 0.00 sec. (3.82 ticks)
Tried aggregator 1 time.
MIP Presolve modified 1044 coefficients.
Reduced MIP has 2505 rows, 2975 columns, and 7735 nonzeros.
Reduced MIP has 1195 binaries, 0 generals, 0 SOSs, and 0 indicators.
Presolve time = 0.00 sec. (5.12 ticks)
Represolve time = 0.01 sec. (16.81 ticks)
*  5034+    0                      1980664.0000   348693.3349            82.40%
   5034     0  -1.00000e+75     0  1980664.0000   348693.3349    17688   82.40%
   5134    86   367359.9756   475  1980664.0000   349937.2569    17953   82.33%
   6269  1085   743384.0929   421  1980664.0000   349937.2569    21471   82.33%
   7636  2325  1277261.7827   283  1980664.0000   349937.2569    25848   82.33%
   9534  4021   861607.0680   409  1980664.0000   350889.7776    31892   82.28%
*  9822  4284      integral     0  1948623.0000   350889.7776    32727   81.99%
* 10422  5153      integral     0  1942855.0000   350889.7776    35759   81.94%
* 10569+ 4895                      1720802.0000   350889.7776            79.61%
* 10643+ 5064                      1696160.0000   350889.7776            79.31%
* 10713+ 4895                      1688125.0000   350889.7776            79.21%
* 10963+ 5064                      1687567.0000   350889.7776            79.21%
* 11143+ 5547                      1684523.0000   350889.7776            79.17%
* 11215+ 5516                      1633576.0000   350889.7776            78.52%
* 11225+ 5414                      1628750.0000   350889.7776            78.46%
* 11369+ 5414                      1625197.0000   350889.7776            78.41%
  11484  5547  1449124.1891   225  1625197.0000   350889.7776    38267   78.41%
* 11532+ 5414                      1622518.0000   350889.7776            78.37%
* 11905+ 5535                      1622509.0000   350889.7776            78.37%
* 13298+ 7071                      1620249.0000   350889.7776            78.34%
  13544  7237   812663.3967   411  1620249.0000   350889.7776    43858   78.34%
  22322 15740  1003653.5027   323  1620249.0000   350889.7776    71221   78.34%
Elapsed time = 1.72 sec. (3083.27 ticks, tree = 25.40 MB, solutions = 29)
  31617 24458  1175865.1625   318  1620249.0000   350889.7776    97226   78.34%
* 38371+30548                      1619768.0000   350889.7776            78.34%
* 38550+30548                      1608625.0000   350889.7776            78.19%
* 38699+30548                      1579849.0000   350889.7776            77.79%
* 38868+30548                      1575176.0000   350889.7776            77.72%
  38927 31770  1546464.9116   123  1575176.0000   350889.7776   118977   77.72%
* 39073+30548                      1574139.0000   350889.7776            77.71%
* 39175+30548                      1571628.0000   350889.7776            77.67%
* 39455+30548                      1565099.0000   350889.7776            77.58%
* 39466+30548                      1561979.0000   350889.7776            77.54%
* 39556+30548                      1559996.0000   350889.7776            77.51%
* 40170+30548                      1557346.0000   350889.7776            77.47%
* 40335+30548                      1557234.0000   350889.7776            77.47%
* 41039+29918                      1556079.0000   350889.7776            77.45%
* 41044+30548                      1541664.0000   350889.7776            77.24%
* 41182+30548                      1536698.0000   350889.7776            77.17%
  43524 36077   507437.1712   460  1536698.0000   350889.7776   131471   77.17%
* 44903+30548                      1536661.0000   350889.7776            77.17%
* 46098+30548                      1532218.0000   350889.7776            77.10%
* 46131+30548                      1532076.0000   350889.7776            77.10%
* 46340+30548                      1532008.0000   350889.7776            77.10%
  47957 40180  1070457.4842   337  1532008.0000   350889.7776   143084   77.10%
* 48451+30548                      1526990.0000   350889.7776            77.02%
* 49160+30548                      1526848.0000   350889.7776            77.02%
* 50690+30548                      1526133.0000   350889.7776            77.01%
* 51658+30548                      1525513.0000   350889.7776            77.00%
* 51832+30548                      1523041.0000   350889.7776            76.96%
  52316 44673   500465.0573   466  1523041.0000   350889.7776   155778   76.96%
* 53818+30548                      1522333.0000   350889.7776            76.95%
* 53956+30548                      1522256.0000   350889.7776            76.95%
* 54214+29918                      1521814.0000   350889.7776            76.94%
* 54948+30548                      1521730.0000   350889.7776            76.94%
* 55311+30548                      1521614.0000   350889.7776            76.94%
* 56541+30147                      1520702.0000   350889.7776            76.93%
  57118 47012  1247566.1787   263  1520702.0000   350889.7776   168619   76.93%
* 57324+29918                      1512945.0000   350889.7776            76.81%
* 58469+29918                      1506650.0000   350889.7776            76.71%
* 59423+30147                      1506041.0000   350889.7776            76.70%
* 60914+29918                      1505415.0000   350889.7776            76.69%
* 61117+29918                      1505073.0000   350889.7776            76.69%
* 62021+30147                      1504549.0000   350889.7776            76.68%
* 62068+30147                      1504483.0000   350889.7776            76.68%
  62691 52089   915498.3889   363  1504483.0000   350889.7776   183101   76.68%

Implied bound cuts applied:  0
Flow cuts applied:  0
Mixed integer rounding cuts applied:  0
Gomory fractional cuts applied:  0

Root node processing (before b&c):
  Real time             =    0.06 sec. (76.40 ticks)
Parallel b&c, 8 threads:
  Real time             =    6.37 sec. (9930.16 ticks)
  Sync time (average)   =    1.31 sec.
  Wait time (average)   =    0.00 sec.
                          ------------
Total (root+branch&cut) =    6.43 sec. (10006.56 ticks)
Gap: 76.68%
Upper bound: 1.50448e+06
Lower bound: 350890
End of CPLEX run. Time: 6.43148 seconds

===== New CPLEX run =====
Instance: /home/yorig/tuner/mpils-tests/instances/miplib/easy/lotsize.mps
Config: /scratch/yorig/mpils-results-grid-ticks-10000/easy/16proc/seed-9/4_lotsize_seed-9_20260425_202405/expansion/config_param_CPXPARAM_MIP_Limits_CutsFactor_2_iter_1.prm
========================

Selected objective sense:  MINIMIZE
Selected objective  name:  R1921
Selected RHS        name:  B
Selected bound      name:  BOUND
Version identifier: 22.1.2.0 | 2024-11-26 | 0edbb82fd
CPXPARAM_Threads                                 8
CPXPARAM_Parallel                                1
CPXPARAM_MIP_Cuts_Cliques                        -1
CPXPARAM_MIP_Cuts_FlowCovers                     2
CPXPARAM_MIP_Cuts_Implied                        2
CPXPARAM_MIP_Cuts_GUBCovers                      -1
CPXPARAM_MIP_Limits_GomoryCand                   50
CPXPARAM_MIP_Cuts_Gomory                         1
CPXPARAM_MIP_Cuts_PathCut                        -1
CPXPARAM_MIP_Cuts_MIRCut                         2
CPXPARAM_MIP_Cuts_Disjunctive                    -1
CPXPARAM_Emphasis_MIP                            1
CPXPARAM_DetTimeLimit                            10000
CPXPARAM_MIP_Limits_CutsFactor                   2
Tried aggregator 1 time.
MIP Presolve eliminated 595 rows and 0 columns.
MIP Presolve added 1190 rows and 0 columns.
MIP Presolve modified 10 coefficients.
Reduced MIP has 2515 rows, 2985 columns, and 7755 nonzeros.
Reduced MIP has 1195 binaries, 0 generals, 0 SOSs, and 0 indicators.
Presolve time = 0.00 sec. (4.53 ticks)
Probing fixed 0 vars, tightened 5487 bounds.
Probing time = 0.01 sec. (18.38 ticks)
Tried aggregator 2 times.
Detecting symmetries...
MIP Presolve modified 1206 coefficients.
Aggregator did 10 substitutions.
Reduced MIP has 2505 rows, 2975 columns, and 7735 nonzeros.
Reduced MIP has 1195 binaries, 0 generals, 0 SOSs, and 0 indicators.
Presolve time = 0.00 sec. (6.66 ticks)
Probing fixed 0 vars, tightened 2401 bounds.
Probing time = 0.00 sec. (6.41 ticks)
Clique table members: 190.
MIP emphasis: integer feasibility.
MIP search method: dynamic search.
Parallel mode: deterministic, using up to 8 threads.
Root relaxation solution time = 0.01 sec. (9.71 ticks)

        Nodes                                         Cuts/
   Node  Left     Objective  IInf  Best Integer    Best Bound    ItCnt     Gap

      0     0   348385.3466   472                 348385.3466      882         
      0     0   572313.5958   462                   Cuts: 726     1889         
      0     0   831822.5913   565                   Cuts: 726     2717         
      0     0   945966.5491   640                   Cuts: 726     3332         
*     0+    0                       1.01740e+07   945966.5491            90.70%
*     0+    0                      7973370.0000   945966.5491            88.14%
Detecting symmetries...
      0     2   945966.5491   640  7973370.0000   945966.5491     3332   88.14%
Elapsed time = 0.34 sec. (495.68 ticks, tree = 0.02 MB, solutions = 2)
    100    70  1063812.9905   674  7973370.0000   946292.4723    11501   88.13%
    517   400  1099645.0451   514  7973370.0000   946292.4723    18492   88.13%
    847   737  1196861.5457   533  7973370.0000   946292.4723    24256   88.13%
   1429  1203  1524718.7381   280  7973370.0000   946292.4723    33245   88.13%

Performing restart 1

Repeating presolve.
Tried aggregator 1 time.
MIP Presolve modified 1211 coefficients.
Reduced MIP has 2505 rows, 2975 columns, and 7735 nonzeros.
Reduced MIP has 1195 binaries, 0 generals, 0 SOSs, and 0 indicators.
Presolve time = 0.00 sec. (3.84 ticks)
Tried aggregator 1 time.
MIP Presolve modified 1032 coefficients.
Reduced MIP has 2505 rows, 2975 columns, and 7735 nonzeros.
Reduced MIP has 1195 binaries, 0 generals, 0 SOSs, and 0 indicators.
Presolve time = 0.00 sec. (5.12 ticks)
Represolve time = 0.02 sec. (18.63 ticks)
*  1743+    0                      6644005.0000  1005488.4859            84.87%
   1743     0  1078088.4849   727  6644005.0000     Cuts: 607    44892   83.77%
   1743     0  1146326.2448   710  6644005.0000     Cuts: 714    45601   82.75%
   1743     0  1195029.1599   735  6644005.0000     Cuts: 683    46292   82.01%
   1743     2  1195029.1599   735  6644005.0000  1201582.0012    46292   81.91%
   1761    20  1246642.0154   656  6644005.0000  1201582.0012    46831   81.91%
   1783    42  1260188.8230   614  6644005.0000  1201582.0012    47275   81.91%
   1802    55  1342489.5677   636  6644005.0000  1201582.0012    48624   81.91%
   1808    58  1282354.6752   779  6644005.0000  1201582.0012    49326   81.91%
   2289   309  1436562.6057   479  6644005.0000  1237405.1334    86092   81.38%
Elapsed time = 3.39 sec. (4796.40 ticks, tree = 0.43 MB, solutions = 3)
*  2509+  411                      1917930.0000  1237405.1334            35.48%
*  2725+  664                      1870886.0000  1237405.1334            33.86%
   3892  1622  1511338.1310   255  1870886.0000  1237405.1334   133724   33.86%
*  4068  1859      integral     0  1793349.0000  1237405.1334   138898   31.00%
*  4297  2331      integral     0  1723338.0000  1237405.1334   151203   28.20%
*  4300+ 2331                      1693338.0000  1237405.1334            26.93%
*  5147+ 2522                      1670559.0000  1237405.1334            25.93%
*  5155+ 2522                      1625680.0000  1237405.1334            23.88%
*  5160+ 2522                      1592188.0000  1237405.1334            22.28%
*  5170+ 2522                      1567391.0000  1237405.1334            21.05%
*  5179+ 2522                      1564956.0000  1237405.1334            20.93%
*  5192+ 2522                      1561508.0000  1237405.1334            20.76%
   5405  2079  1478037.6400   429  1561508.0000  1237405.1334   192506   20.76%
   7105  3412  1435363.5430   481  1561508.0000  1237405.1334   240361   20.76%
   8469  4845  1427044.1207   518  1561508.0000  1237405.1334   296884   20.76%
   9757  5948  1298035.1969   741  1561508.0000  1237405.1334   335830   20.76%

Cover cuts applied:  19
Implied bound cuts applied:  16
Flow cuts applied:  1277
Mixed integer rounding cuts applied:  1079
Multi commodity flow cuts applied:  6
Gomory fractional cuts applied:  4

Root node processing (before b&c):
  Real time             =    0.33 sec. (493.69 ticks)
Parallel b&c, 8 threads:
  Real time             =    6.71 sec. (9509.58 ticks)
  Sync time (average)   =    0.47 sec.
  Wait time (average)   =    0.00 sec.
                          ------------
Total (root+branch&cut) =    7.04 sec. (10003.27 ticks)
Gap: 20.76%
Upper bound: 1.56151e+06
Lower bound: 1.23741e+06
End of CPLEX run. Time: 7.04279 seconds
